\ This file was automatically generated by Zimpl
\ var x_1;
\ var x_2;
\ var x_3;
\ var x_4;
\ var x_5;
\ var y;
\ maximize fcelu: -110*x_1 - 120*x_2 - 130*x_3 - 110*x_4 - 115*x_5 + 150*y;
\ subto ogr1: x_1 + x_2 <= 200;
\ subto ogr2: x_3 + x_4 + x_5 <= 250;
\ subto ogr3: 8.8*x_1 + 6.1*x_2 + 2*x_3 + 4.2*x_4 + 5*x_5 - 6*y <= 0;
\ subto ogr4: 8.8*x_1 + 6.1*x_2 + 2*x_3 + 4.2*x_4 + 5*x_5 - 3*y >= 0;
\ subto ogr5: x_1 + x_2 +x_3 + x_4 + x_5 -y == 0;
\Problem name: wyk1.zpl
Maximize
 fcelu:  -110 x_1 -120 x_2 -130 x_3 -110 x_4 -115 x_5 +150 y
 
Subject to
 ogr1_1:
  + x_2 + x_1 <= 200
 ogr2_1:
  + x_5 + x_4 + x_3 <= 250
 ogr3_1:
  -6 y +5 x_5 +4.2 x_4 +2 x_3 +6.1 x_2 +8.8 x_1
  <= 0
 ogr4_1:
  -3 y +5 x_5 +4.2 x_4 +2 x_3 +6.1 x_2 +8.8 x_1
  >= 0
 ogr5_1:
  - y + x_5 + x_4 + x_3 + x_2 + x_1
  = 0
Bounds
 0 <= x_1 <= +inf
 0 <= x_2 <= +inf
 0 <= x_3 <= +inf
 0 <= x_4 <= +inf
 0 <= x_5 <= +inf
 0 <= y <= +inf
End
